(set-option :produce-models true); benchmark generated from python API
(set-info :status unknown)
(declare-fun l_1_0_8 () Real)
(declare-fun l_1_0_6 () Real)
(declare-fun l_1_0_5 () Real)
(declare-fun l_1_0_11 () Real)
(declare-fun l_1_0_10 () Real)
(declare-fun l_1_0_1 () Real)
(declare-fun _a_0_ () Real)
(declare-fun l_1_0_9 () Real)
(declare-fun l_1_0_12 () Real)
(declare-fun _a_1_ () Real)
(declare-fun l_1_0_7 () Real)
(declare-fun l_1_0_4 () Real)
(declare-fun l_1_0_2 () Real)
(declare-fun l_1_0_14 () Real)
(declare-fun l_1_0_13 () Real)
(declare-fun _a_2_ () Real)
(declare-fun l_1_0_3 () Real)
(declare-fun _a_3_ () Real)
(declare-fun l_1_1_8 () Real)
(declare-fun l_1_1_7 () Real)
(declare-fun l_1_1_5 () Real)
(declare-fun l_1_1_3 () Real)
(declare-fun l_1_1_17 () Real)
(declare-fun l_1_1_16 () Real)
(declare-fun l_1_1_14 () Real)
(declare-fun l_1_1_13 () Real)
(declare-fun l_1_1_11 () Real)
(declare-fun l_1_1_10 () Real)
(declare-fun l_1_1_1 () Real)
(declare-fun l_1_1_9 () Real)
(declare-fun l_1_1_6 () Real)
(declare-fun l_1_1_4 () Real)
(declare-fun l_1_1_2 () Real)
(declare-fun l_1_1_12 () Real)
(declare-fun l_1_1_20 () Real)
(declare-fun l_1_1_19 () Real)
(declare-fun l_1_1_18 () Real)
(declare-fun l_1_1_15 () Real)
(declare-fun l_1_2_9 () Real)
(declare-fun l_1_2_7 () Real)
(declare-fun l_1_2_6 () Real)
(declare-fun l_1_2_5 () Real)
(declare-fun l_1_2_4 () Real)
(declare-fun l_1_2_2 () Real)
(declare-fun l_1_2_17 () Real)
(declare-fun l_1_2_16 () Real)
(declare-fun l_1_2_14 () Real)
(declare-fun l_1_2_13 () Real)
(declare-fun l_1_2_10 () Real)
(declare-fun l_1_2_8 () Real)
(declare-fun l_1_2_3 () Real)
(declare-fun l_1_2_12 () Real)
(declare-fun l_1_2_11 () Real)
(declare-fun l_1_2_1 () Real)
(declare-fun l_1_2_18 () Real)
(declare-fun l_1_2_15 () Real)
(declare-fun l_1_2_20 () Real)
(declare-fun l_1_2_19 () Real)
(assert
 (let ((?x1375 (* l_1_0_11 l_1_0_11)))
 (let ((?x1374 (- (- (- (- _a_0_ l_1_0_1) (* l_1_0_10 l_1_0_10)) ?x1375) l_1_0_5)))
 (= (- (- ?x1374 l_1_0_6) l_1_0_8) 0.0))))
(assert
 (= (- _a_1_ (* (* 2.0 l_1_0_12) l_1_0_9)) 0.0))
(assert
 (let ((?x1301 (* l_1_0_14 l_1_0_14)))
 (let ((?x1302 (- (- (- _a_2_ (* l_1_0_12 l_1_0_12)) (* l_1_0_13 l_1_0_13)) ?x1301)))
 (= (+ (+ (+ ?x1302 l_1_0_2) l_1_0_4) l_1_0_7) 0.0))))
(assert
 (let ((?x1282 (* l_1_0_9 l_1_0_9)))
 (let ((?x1281 (+ (+ (- (+ _a_3_ l_1_0_2) (* 4.0 l_1_0_3)) l_1_0_4) l_1_0_7)))
 (= (- ?x1281 ?x1282) 0.0))))
(assert
 (let ((?x1196 (* 2.0 l_1_0_7)))
 (let ((?x1194 (* 2.0 l_1_0_4)))
 (let ((?x1197 (- (- (- (* (* (- 2.0) l_1_0_10) l_1_0_9) (* 2.0 l_1_0_2)) ?x1194) ?x1196)))
 (= ?x1197 0.0)))))
(assert
 (= (- l_1_0_3) 0.0))
(assert
 (= (* (- 2.0) l_1_0_3) 0.0))
(assert
 (let ((?x1278 (* 4.0 l_1_0_3)))
 (= ?x1278 0.0)))
(assert
 (= (- l_1_0_3) 0.0))
(assert
 (let ((?x1278 (* 4.0 l_1_0_3)))
 (= ?x1278 0.0)))
(assert
 (let ((?x1161 (- (* (* (- 2.0) l_1_0_10) l_1_0_12) (* (* 2.0 l_1_0_11) l_1_0_13))))
 (= ?x1161 0.0)))
(assert
 (>= l_1_0_1 0.0))
(assert
 (>= l_1_0_2 0.0))
(assert
 (>= l_1_0_3 0.0))
(assert
 (>= l_1_0_4 0.0))
(assert
 (>= l_1_0_5 0.0))
(assert
 (>= l_1_0_6 0.0))
(assert
 (>= l_1_0_7 0.0))
(assert
 (>= l_1_0_8 0.0))
(assert
 (>= l_1_0_9 0.0))
(assert
 (>= l_1_0_11 0.0))
(assert
 (>= l_1_0_14 0.0))
(assert
 (let ((?x1034 (* l_1_1_17 l_1_1_17)))
 (let ((?x1085 (* l_1_1_16 l_1_1_16)))
 (let ((?x1073 (* _a_0_ l_1_1_6)))
 (let ((?x1072 (+ (- (* (- _a_0_) l_1_1_12) (* _a_0_ l_1_1_2)) (* (* 1.0 _a_0_) l_1_1_4))))
 (let ((?x1079 (- (+ (- ?x1072 ?x1073) (* (* 1.0 _a_0_) l_1_1_9)) (* (* l_1_1_1 _a_0_) _a_0_))))
 (let ((?x1084 (- (- (- (- ?x1079 (* 1.0 l_1_1_10)) l_1_1_11) l_1_1_13) l_1_1_14)))
 (let ((?x1038 (+ (- (+ (- (- ?x1084 ?x1085) ?x1034) (* 1.0 l_1_1_3)) l_1_1_5) (* 1.0 l_1_1_7))))
 (= (+ (+ ?x1038 (* 1.0 l_1_1_8)) 3.0) 0.0)))))))))
(assert
 (let ((?x856 (* l_1_1_20 l_1_1_20)))
 (let ((?x904 (* l_1_1_19 l_1_1_19)))
 (let ((?x902 (* l_1_1_18 l_1_1_18)))
 (let ((?x898 (* _a_2_ l_1_1_6)))
 (let ((?x892 (* _a_2_ l_1_1_2)))
 (let ((?x952 (* _a_2_ l_1_1_12)))
 (let ((?x897 (+ (- (- (* (* (* (- 2.0) _a_0_) _a_2_) l_1_1_1) ?x952) ?x892) (* (* 1.0 _a_2_) l_1_1_4))))
 (let ((?x855 (- (- (+ (- ?x897 ?x898) (* (* 1.0 _a_2_) l_1_1_9)) ?x902) ?x904)))
 (= (- (- ?x855 ?x856) 1.0) 0.0))))))))))
(assert
 (let ((?x739 (* l_1_1_15 l_1_1_15)))
 (let ((?x735 (* _a_3_ l_1_1_6)))
 (let ((?x730 (* _a_3_ l_1_1_2)))
 (let ((?x728 (* _a_3_ l_1_1_12)))
 (let ((?x734 (+ (- (- (* (* (* (- 2.0) _a_0_) _a_3_) l_1_1_1) ?x728) ?x730) (* (* 1.0 _a_3_) l_1_1_4))))
 (let ((?x742 (- (- (+ (- ?x734 ?x735) (* (* 1.0 _a_3_) l_1_1_9)) ?x739) 1.0)))
 (= ?x742 0.0))))))))
(assert
 (= (+ (* (* (- 2.0) l_1_1_15) l_1_1_16) 2.0) 0.0))
(assert
 (let ((?x671 (* _a_1_ l_1_1_6)))
 (let ((?x27 (* _a_1_ l_1_1_2)))
 (let ((?x29 (* _a_1_ l_1_1_12)))
 (let ((?x23 (+ (- (- (* (* (* (- 2.0) _a_0_) _a_1_) l_1_1_1) ?x29) ?x27) (* (* 1.0 _a_1_) l_1_1_4))))
 (let ((?x668 (- (+ (- ?x23 ?x671) (* (* 1.0 _a_1_) l_1_1_9)) (* (* 2.0 l_1_1_15) l_1_1_18))))
 (= ?x668 0.0)))))))
(assert
 (let ((?x602 (* _a_1_ _a_1_)))
 (let ((?x565 (+ ?x602 (* (* 2.0 _a_2_) _a_3_))))
 (let ((?x601 (- l_1_1_1)))
 (= (* ?x601 ?x565) 0.0)))))
(assert
 (= (* (* (* (- 2.0) _a_1_) _a_2_) l_1_1_1) 0.0))
(assert
 (= (* (* (* (- 2.0) _a_1_) _a_3_) l_1_1_1) 0.0))
(assert
 (= (* (* (- l_1_1_1) _a_2_) _a_2_) 0.0))
(assert
 (= (* (* (- l_1_1_1) _a_3_) _a_3_) 0.0))
(assert
 (let ((?x430 (- (* (* (- 2.0) l_1_1_16) l_1_1_18) (* (* 2.0 l_1_1_17) l_1_1_19))))
 (= ?x430 0.0)))
(assert
 (>= l_1_1_1 0.0))
(assert
 (>= l_1_1_2 0.0))
(assert
 (>= l_1_1_3 0.0))
(assert
 (>= l_1_1_4 0.0))
(assert
 (>= l_1_1_5 0.0))
(assert
 (>= l_1_1_6 0.0))
(assert
 (>= l_1_1_7 0.0))
(assert
 (>= l_1_1_8 0.0))
(assert
 (>= l_1_1_9 0.0))
(assert
 (>= l_1_1_10 0.0))
(assert
 (>= l_1_1_11 0.0))
(assert
 (>= l_1_1_12 0.0))
(assert
 (>= l_1_1_13 0.0))
(assert
 (>= l_1_1_14 0.0))
(assert
 (>= l_1_1_15 0.0))
(assert
 (>= l_1_1_17 0.0))
(assert
 (>= l_1_1_20 0.0))
(assert
 (let ((?x294 (* l_1_2_17 l_1_2_17)))
 (let ((?x291 (* l_1_2_16 l_1_2_16)))
 (let ((?x339 (* (/ 25897921.0 2500000000000000.0) _a_3_)))
 (let ((?x336 (* (/ 1.0 10000.0) _a_2_)))
 (let ((?x333 (* (/ 5089.0 5000000000.0) _a_1_)))
 (let ((?x329 (* _a_0_ l_1_2_8)))
 (let ((?x326 (- (- (* (- _a_0_) l_1_2_1) (* _a_0_ l_1_2_11)) (* (* 1.0 _a_0_) l_1_2_12))))
 (let ((?x334 (+ (+ (- (- ?x326 (* (* 1.0 _a_0_) l_1_2_3)) ?x329) _a_0_) ?x333)))
 (let ((?x289 (- (- (+ (+ ?x334 ?x336) ?x339) (* (* l_1_2_10 _a_0_) _a_0_)) (* 1.0 l_1_2_13))))
 (let ((?x300 (- (- (- (- (- ?x289 l_1_2_14) ?x291) ?x294) (* 1.0 l_1_2_2)) (* 1.0 l_1_2_4))))
 (let ((?x281 (- (- (- (- ?x300 l_1_2_5) l_1_2_6) (* 1.0 l_1_2_7)) l_1_2_9)))
 (= ?x281 0.0)))))))))))))
(assert
 (let ((?x143 (* (/ 207280909786429.0 10000000000000000.0) _a_3_)))
 (let ((?x167 (* (/ 1036521.0 50000000.0) _a_2_)))
 (let ((?x182 (* (/ 12497251686731.0 12500000000000.0) _a_1_)))
 (let ((?x179 (* _a_1_ l_1_2_8)))
 (let ((?x173 (* _a_1_ l_1_2_11)))
 (let ((?x208 (* _a_1_ l_1_2_1)))
 (let ((?x176 (- (- (- (* (* (* (- 2.0) _a_0_) _a_1_) l_1_2_10) ?x208) ?x173) (* (* 1.0 _a_1_) l_1_2_12))))
 (let ((?x168 (- (+ (- (- ?x176 (* (* 1.0 _a_1_) l_1_2_3)) ?x179) ?x182) ?x167)))
 (= (- (+ ?x168 ?x143) (* (* 2.0 l_1_2_15) l_1_2_18)) 0.0))))))))))
(assert
 (let ((?x371 (* l_1_2_20 l_1_2_20)))
 (let ((?x354 (* l_1_2_19 l_1_2_19)))
 (let ((?x353 (* l_1_2_18 l_1_2_18)))
 (let ((?x348 (* (/ 1112484251041.0 10000000000000000.0) _a_3_)))
 (let ((?x344 (* _a_2_ l_1_2_8)))
 (let ((?x1048 (* _a_2_ l_1_2_11)))
 (let ((?x1046 (* _a_2_ l_1_2_1)))
 (let ((?x1047 (- (+ (* (* (* (- 2.0) _a_0_) _a_2_) l_1_2_10) (* (/ 527621.0 50000000.0) _a_1_)) ?x1046)))
 (let ((?x369 (- (- (- ?x1047 ?x1048) (* (* 1.0 _a_2_) l_1_2_12)) (* (* 1.0 _a_2_) l_1_2_3))))
 (= (- (- (- (+ (+ (- ?x369 ?x344) _a_2_) ?x348) ?x353) ?x354) ?x371) 0.0)))))))))))
(assert
 (= (+ (* (/ 18721.0 1000000.0) _a_1_) (* (/ 19404709641.0 50000000000000.0) _a_3_)) 0.0))
(assert
 (= (+ (- (* (- (/ 51108943441.0 50000000000000.0)) _a_1_) (* (/ 18721.0 500000.0) _a_2_)) (* (/ 93562026018491.0 2500000000000000.0) _a_3_)) 0.0))
(assert
 (let ((?x551 (- (+ (+ (* (/ 2054321.0 10000000000.0) _a_1_) (* (/ 1.0 50.0) _a_2_)) (* (/ 5274855369.0 2500000000000000.0) _a_3_)) (* (* 2.0 l_1_2_16) l_1_2_18))))
 (= (- ?x551 (* (* 2.0 l_1_2_17) l_1_2_19)) 0.0)))
(assert
 (= (- (+ (* (- (/ 37409384775463.0 2000000000000000.0)) _a_1_) (* (/ 221771169.0 250000000000.0) _a_2_)) (* (/ 31698152009291.0 25000000000000000.0) _a_3_)) 0.0))
(assert
 (let ((?x824 (* (/ 38758637278219.0 1250000000000000000.0) _a_3_)))
 (let ((?x829 (- (- (* (* (* (- 2.0) _a_1_) _a_2_) l_1_2_10) (* (/ 350475841.0 500000000000.0) _a_1_)) ?x824)))
 (= ?x829 0.0))))
(assert
 (let ((?x911 (- (- (+ (* (/ 14823540664547.0 500000000000000000.0) _a_1_) (* (/ 350475841.0 1000000000000.0) _a_2_)) (* (/ 700086027943143.0 1000000000000000000.0) _a_3_)) (* l_1_2_10 (+ (* _a_1_ _a_1_) (* (* 2.0 _a_2_) _a_3_))))))
 (= ?x911 0.0)))
(assert
 (let ((?x587 (* (/ 4736413.0 500000000000.0) _a_2_)))
 (let ((?x580 (- (- (* (* (* (- 2.0) _a_1_) _a_3_) l_1_2_10) (* (/ 104315317271.0 250000000000000000.0) _a_1_)) ?x587)))
 (= (+ ?x580 (* (/ 47339458409133.0 2500000000000000000.0) _a_3_)) 0.0))))
(assert
 (let ((?x718 (- (+ (- (* (/ 124973785829.0 12500000000000.0) _a_1_) (* (/ 5089.0 25000000.0) _a_2_)) (* (/ 40707679574001.0 200000000000000000.0) _a_3_)) (* (* 2.0 l_1_2_15) l_1_2_16))))
 (= ?x718 0.0)))
(assert
 (let ((?x356 (* l_1_2_15 l_1_2_15)))
 (let ((?x361 (* (/ 12497347111777.0 12500000000000.0) _a_3_)))
 (let ((?x463 (* _a_3_ l_1_2_8)))
 (let ((?x459 (* _a_3_ l_1_2_11)))
 (let ((?x973 (* _a_3_ l_1_2_1)))
 (let ((?x970 (* (/ 27162921.0 250000000000.0) _a_2_)))
 (let ((?x972 (+ (- (* (* (* (- 2.0) _a_0_) _a_3_) l_1_2_10) (* (/ 50884213212401.0 5000000000000000.0) _a_1_)) ?x970)))
 (let ((?x461 (- (- (- (- ?x972 ?x973) ?x459) (* (* 1.0 _a_3_) l_1_2_12)) (* (* 1.0 _a_3_) l_1_2_3))))
 (= (- (+ (- ?x461 ?x463) ?x361) ?x356) 0.0))))))))))
(assert
 (= (+ (- (* (/ 63230023432961.0 250000000000000000.0) _a_1_) (* (/ 1287517.0 250000000000.0) _a_2_)) (* (/ 51495149512751.0 5000000000000000000.0) _a_3_)) 0.0))
(assert
 (let ((?x108 (- (- (+ (* (/ 977225403.0 500000000000000000.0) _a_1_) (* (/ 64009.0 1000000000000.0) _a_2_)) (* (/ 127977891313853.0 1000000000000000000000.0) _a_3_)) (* (* l_1_2_10 _a_3_) _a_3_))))
 (= ?x108 0.0)))
(assert
 (= (+ (* (/ 6561258219361.0 1000000000000000000.0) _a_1_) (* (/ 6393154170117.0 8000000000000000000.0) _a_3_)) 0.0))
(assert
 (= (- (* (- (/ 266011163319.0 1000000000000000000.0)) _a_1_) (* (/ 180197214150431.0 10000000000000000000000.0) _a_3_)) 0.0))
(assert
 (= (+ (* (/ 3594937467.0 1000000000000000000.0) _a_1_) (* (/ 22343206019563.0 125000000000000000000000.0) _a_3_)) 0.0))
(assert
 (= (- (* (- (/ 16194277.0 1000000000000000000.0)) _a_1_) (* (/ 82412675653.0 125000000000000000000000.0) _a_3_)) 0.0))
(assert
 (= (- (* (/ 350475841.0 1000000000000.0) _a_3_) (* (* l_1_2_10 _a_2_) _a_2_)) 0.0))
(assert
 (= (* (- (/ 6561258219361.0 500000000000000000.0)) _a_3_) 0.0))
(assert
 (= (* (/ 122833315124657.0 1000000000000000000000.0) _a_3_) 0.0))
(assert
 (= (* (- (/ 663999331799333.0 100000000000000000000000.0)) _a_3_) 0.0))
(assert
 (= (* (/ 67300824319707.0 500000000000000000000000.0) _a_3_) 0.0))
(assert
 (= (* (- (/ 303173059717.0 250000000000000000000000.0)) _a_3_) 0.0))
(assert
 (= (* (/ 4097152081.0 1000000000000000000000000.0) _a_3_) 0.0))
(assert
 (>= l_1_2_1 0.0))
(assert
 (>= l_1_2_2 0.0))
(assert
 (>= l_1_2_3 0.0))
(assert
 (>= l_1_2_4 0.0))
(assert
 (>= l_1_2_5 0.0))
(assert
 (>= l_1_2_6 0.0))
(assert
 (>= l_1_2_7 0.0))
(assert
 (>= l_1_2_8 0.0))
(assert
 (>= l_1_2_9 0.0))
(assert
 (>= l_1_2_10 0.0))
(assert
 (>= l_1_2_11 0.0))
(assert
 (>= l_1_2_12 0.0))
(assert
 (>= l_1_2_13 0.0))
(assert
 (>= l_1_2_14 0.0))
(assert
 (>= l_1_2_15 0.0))
(assert
 (>= l_1_2_17 0.0))
(assert
 (>= l_1_2_20 0.0))
(check-sat)
(get-model)